Route #1: 726 213 606 616 377 386 788 254 625 729 
Route #2: 667 796 673 703 313 281 634 632 53 106 82 
Route #3: 110 854 927 68 516 610 247 866 
Route #4: 650 613 686 286 372 202 621 537 541 
Route #5: 486 706 201 802 695 257 559 743 970 877 
Route #6: 21 741 967 986 485 540 713 283 142 712 
Route #7: 487 141 911 74 65 278 407 790 751 
Route #8: 697 704 893 607 630 501 239 384 253 
Route #9: 775 299 235 455 461 721 898 753 687 478 
Route #10: 26 117 489 932 122 586 547 264 718 
Distance: 21053
